Problem:    64
Rows:       24
Columns:    100 (100 integer, 100 binary)
Non-zeros:  240
Status:     INTEGER OPTIMAL
Objective:  0 (MINimum)

   No.   Row name        Activity     Lower bound   Upper bound
------ ------------    ------------- ------------- -------------
     1 Assign1[0]                  1             1             = 
     2 Assign1[1]                  1             1             = 
     3 Assign1[2]                  1             1             = 
     4 Assign1[3]                  1             1             = 
     5 Assign1[4]                  1             1             = 
     6 Assign1[5]                  1             1             = 
     7 Assign1[6]                  1             1             = 
     8 Assign1[7]                  1             1             = 
     9 Assign1[8]                  1             1             = 
    10 Assign1[9]                  1             1             = 
    11 Assign2[0]                  1             1             = 
    12 Assign2[1]                  1             1             = 
    13 Assign2[2]                  1             1             = 
    14 Assign2[3]                  1             1             = 
    15 Assign2[4]                  1             1             = 
    16 Assign2[5]                  1             1             = 
    17 Assign2[6]                  1             1             = 
    18 Assign2[7]                  1             1             = 
    19 Assign2[8]                  1             1             = 
    20 Assign2[9]                  1             1             = 
    21 Coincidenze[1]
                                   8             8             = 
    22 Coincidenze[2]
                                   2             2             = 
    23 Coincidenze[3]
                                   1             1             = 
    24 Coincidenze[4]
                                   4             4             = 

   No. Column name       Activity     Lower bound   Upper bound
------ ------------    ------------- ------------- -------------
     1 x[0,0]       *              0             0             1 
     2 x[1,0]       *              0             0             1 
     3 x[2,0]       *              0             0             1 
     4 x[3,0]       *              0             0             1 
     5 x[4,0]       *              0             0             1 
     6 x[5,0]       *              1             0             1 
     7 x[6,0]       *              0             0             1 
     8 x[7,0]       *              0             0             1 
     9 x[8,0]       *              0             0             1 
    10 x[9,0]       *              0             0             1 
    11 x[0,1]       *              0             0             1 
    12 x[1,1]       *              0             0             1 
    13 x[2,1]       *              0             0             1 
    14 x[3,1]       *              0             0             1 
    15 x[4,1]       *              1             0             1 
    16 x[5,1]       *              0             0             1 
    17 x[6,1]       *              0             0             1 
    18 x[7,1]       *              0             0             1 
    19 x[8,1]       *              0             0             1 
    20 x[9,1]       *              0             0             1 
    21 x[0,2]       *              1             0             1 
    22 x[1,2]       *              0             0             1 
    23 x[2,2]       *              0             0             1 
    24 x[3,2]       *              0             0             1 
    25 x[4,2]       *              0             0             1 
    26 x[5,2]       *              0             0             1 
    27 x[6,2]       *              0             0             1 
    28 x[7,2]       *              0             0             1 
    29 x[8,2]       *              0             0             1 
    30 x[9,2]       *              0             0             1 
    31 x[0,3]       *              0             0             1 
    32 x[1,3]       *              0             0             1 
    33 x[2,3]       *              0             0             1 
    34 x[3,3]       *              1             0             1 
    35 x[4,3]       *              0             0             1 
    36 x[5,3]       *              0             0             1 
    37 x[6,3]       *              0             0             1 
    38 x[7,3]       *              0             0             1 
    39 x[8,3]       *              0             0             1 
    40 x[9,3]       *              0             0             1 
    41 x[0,4]       *              0             0             1 
    42 x[1,4]       *              1             0             1 
    43 x[2,4]       *              0             0             1 
    44 x[3,4]       *              0             0             1 
    45 x[4,4]       *              0             0             1 
    46 x[5,4]       *              0             0             1 
    47 x[6,4]       *              0             0             1 
    48 x[7,4]       *              0             0             1 
    49 x[8,4]       *              0             0             1 
    50 x[9,4]       *              0             0             1 
    51 x[0,5]       *              0             0             1 
    52 x[1,5]       *              0             0             1 
    53 x[2,5]       *              1             0             1 
    54 x[3,5]       *              0             0             1 
    55 x[4,5]       *              0             0             1 
    56 x[5,5]       *              0             0             1 
    57 x[6,5]       *              0             0             1 
    58 x[7,5]       *              0             0             1 
    59 x[8,5]       *              0             0             1 
    60 x[9,5]       *              0             0             1 
    61 x[0,6]       *              0             0             1 
    62 x[1,6]       *              0             0             1 
    63 x[2,6]       *              0             0             1 
    64 x[3,6]       *              0             0             1 
    65 x[4,6]       *              0             0             1 
    66 x[5,6]       *              0             0             1 
    67 x[6,6]       *              0             0             1 
    68 x[7,6]       *              1             0             1 
    69 x[8,6]       *              0             0             1 
    70 x[9,6]       *              0             0             1 
    71 x[0,7]       *              0             0             1 
    72 x[1,7]       *              0             0             1 
    73 x[2,7]       *              0             0             1 
    74 x[3,7]       *              0             0             1 
    75 x[4,7]       *              0             0             1 
    76 x[5,7]       *              0             0             1 
    77 x[6,7]       *              0             0             1 
    78 x[7,7]       *              0             0             1 
    79 x[8,7]       *              0             0             1 
    80 x[9,7]       *              1             0             1 
    81 x[0,8]       *              0             0             1 
    82 x[1,8]       *              0             0             1 
    83 x[2,8]       *              0             0             1 
    84 x[3,8]       *              0             0             1 
    85 x[4,8]       *              0             0             1 
    86 x[5,8]       *              0             0             1 
    87 x[6,8]       *              0             0             1 
    88 x[7,8]       *              0             0             1 
    89 x[8,8]       *              1             0             1 
    90 x[9,8]       *              0             0             1 
    91 x[0,9]       *              0             0             1 
    92 x[1,9]       *              0             0             1 
    93 x[2,9]       *              0             0             1 
    94 x[3,9]       *              0             0             1 
    95 x[4,9]       *              0             0             1 
    96 x[5,9]       *              0             0             1 
    97 x[6,9]       *              1             0             1 
    98 x[7,9]       *              0             0             1 
    99 x[8,9]       *              0             0             1 
   100 x[9,9]       *              0             0             1 

Integer feasibility conditions:

KKT.PE: max.abs.err = 0.00e+00 on row 0
        max.rel.err = 0.00e+00 on row 0
        High quality

KKT.PB: max.abs.err = 0.00e+00 on row 0
        max.rel.err = 0.00e+00 on row 0
        High quality

End of output
